minimize
obj: 6 x_1,1_ + 4 x_1,2_ + 7 x_1,3_ + 7 x_1,4_ + 8 x_1,5_ + 4 x_1,6_ + 7 x_1,7_ + 7 x_1,8_ + 8 x_1,9_ + 4 x_1,10_ + 7 x_2,1_ + 3 x_2,2_ + 6 x_2,3_ + 5 x_2,4_ + 5 x_2,5_ + 8 x_2,6_ + 4 x_2,7_ + 3 x_2,8_ + 3 x_2,9_ + 7 x_2,10_ + 6 x_3,1_ + 4 x_3,2_ + 8 x_3,3_ + 4 x_3,4_ + 7 x_3,5_ + 7 x_3,6_ + 6 x_3,7_ + 8 x_3,8_ + 6 x_3,9_ + 8 x_3,10_ + 3 x_4,1_ + 8 x_4,2_ + 3 x_4,3_ + 8 x_4,4_ + 4 x_4,5_ + 6 x_4,6_ + 3 x_4,7_ + 5 x_4,8_ + 4 x_4,9_ + 7 x_4,10_ + 7 x_5,1_ + 6 x_5,2_ + 8 x_5,3_ + 7 x_5,4_ + 4 x_5,5_ + 5 x_5,6_ + 7 x_5,7_ + 7 x_5,8_ + 5 x_5,9_ + 4 x_5,10_ + 3 x_6,1_ + 4 x_6,2_ + 3 x_6,3_ + 4 x_6,4_ + 8 x_6,5_ + 5 x_6,6_ + 7 x_6,7_ + 5 x_6,8_ + 4 x_6,9_ + 8 x_6,10_ + 4 x_7,1_ + 7 x_7,2_ + 3 x_7,3_ + 3 x_7,4_ + 7 x_7,5_ + 5 x_7,6_ + 6 x_7,7_ + 8 x_7,8_ + 8 x_7,9_ + 5 x_7,10_ + 7 x_8,1_ + 7 x_8,2_ + 6 x_8,3_ + 8 x_8,4_ + 3 x_8,5_ + 8 x_8,6_ + 7 x_8,7_ + 7 x_8,8_ + 8 x_8,9_ + 8 x_8,10_ + 5 x_9,1_ + 5 x_9,2_ + 6 x_9,3_ + 7 x_9,4_ + 3 x_9,5_ + 6 x_9,6_ + 7 x_9,7_ + 6 x_9,8_ + 6 x_9,9_ + 3 x_9,10_ + 3 x_10,1_ + 5 x_10,2_ + 5 x_10,3_ + 8 x_10,4_ + 3 x_10,5_ + 7 x_10,6_ + 8 x_10,7_ + 6 x_10,8_ + 6 x_10,9_ + 5 x_10,10_
subject to
c1_1: -0.35667494393873245 y_6,1_ - 0.6931471805599453 y_3,2_ - 0.5108256237659907 y_9,2_ - 0.6931471805599453 y_1,3_ - 0.35667494393873245 y_4,3_ - 0.5108256237659907 y_10,3_ - 0.6931471805599453 y_1,4_ - 0.5108256237659907 y_2,4_ - 0.6931471805599453 y_4,4_ - 0.2231435513142097 y_5,4_ - 0.35667494393873245 y_7,4_ - 0.35667494393873245 y_3,5_ - 0.35667494393873245 y_5,5_ - 0.5108256237659907 y_6,5_ - 0.35667494393873245 y_7,5_ - 0.6931471805599453 y_9,5_ - 0.5108256237659907 y_8,6_ - 0.2231435513142097 y_9,6_ - 0.35667494393873245 y_3,7_ - 0.2231435513142097 y_5,7_ - 0.2231435513142097 y_7,7_ - 0.5108256237659907 y_10,7_ - 0.35667494393873245 y_3,9_ - 0.2231435513142097 y_5,9_ - 0.35667494393873245 y_6,9_ - 0.6931471805599453 y_7,9_ - 0.5108256237659907 y_8,9_ - 0.2231435513142097 y_10,9_ - 0.5108256237659907 y_1,10_ - 0.6931471805599453 y_4,10_ - 0.5108256237659907 y_8,10_ <= -0.10536051565782628
c2_1: -0.6931471805599453 y_3,1_ - 0.35667494393873245 y_8,1_ - 0.6931471805599453 y_9,1_ - 0.5108256237659907 y_1,2_ - 0.6931471805599453 y_4,2_ - 0.35667494393873245 y_7,2_ - 0.6931471805599453 y_10,2_ - 0.6931471805599453 y_2,3_ - 0.6931471805599453 y_4,3_ - 0.35667494393873245 y_5,3_ - 0.35667494393873245 y_9,3_ - 0.35667494393873245 y_10,3_ - 0.5108256237659907 y_2,4_ - 0.2231435513142097 y_7,4_ - 0.5108256237659907 y_10,4_ - 0.2231435513142097 y_6,5_ - 0.2231435513142097 y_8,5_ - 0.5108256237659907 y_1,6_ - 0.35667494393873245 y_4,6_ - 0.35667494393873245 y_6,6_ - 0.2231435513142097 y_7,6_ - 0.6931471805599453 y_9,6_ - 0.2231435513142097 y_10,6_ - 0.5108256237659907 y_1,7_ - 0.35667494393873245 y_10,7_ - 0.5108256237659907 y_6,8_ - 0.35667494393873245 y_9,9_ - 0.35667494393873245 y_10,9_ - 0.5108256237659907 y_1,10_ - 0.2231435513142097 y_5,10_ - 0.5108256237659907 y_10,10_ <= -0.10536051565782628
c3_1: -0.5108256237659907 y_1,1_ - 0.6931471805599453 y_9,1_ - 0.2231435513142097 y_10,1_ - 0.2231435513142097 y_1,2_ - 0.5108256237659907 y_3,2_ - 0.35667494393873245 y_5,2_ - 0.5108256237659907 y_7,2_ - 0.2231435513142097 y_8,2_ - 0.35667494393873245 y_3,3_ - 0.35667494393873245 y_6,3_ - 0.2231435513142097 y_2,4_ - 0.5108256237659907 y_3,4_ - 0.6931471805599453 y_5,4_ - 0.35667494393873245 y_2,5_ - 0.2231435513142097 y_3,5_ - 0.5108256237659907 y_4,5_ - 0.6931471805599453 y_7,5_ - 0.35667494393873245 y_9,5_ - 0.35667494393873245 y_4,6_ - 0.5108256237659907 y_6,6_ - 0.5108256237659907 y_9,6_ - 0.5108256237659907 y_10,6_ - 0.5108256237659907 y_4,7_ - 0.2231435513142097 y_9,7_ - 0.5108256237659907 y_10,7_ - 0.2231435513142097 y_7,8_ - 0.6931471805599453 y_9,8_ - 0.2231435513142097 y_10,8_ - 0.35667494393873245 y_2,9_ - 0.2231435513142097 y_9,9_ - 0.2231435513142097 y_2,10_ - 0.5108256237659907 y_3,10_ - 0.6931471805599453 y_5,10_ - 0.5108256237659907 y_8,10_ <= -0.10536051565782628
c4_1: -0.35667494393873245 x_6,1_ - 0.5108256237659907 x_8,1_ - 0.6931471805599453 x_1,2_ - 0.35667494393873245 x_2,2_ - 0.6931471805599453 x_5,2_ - 0.35667494393873245 x_8,2_ - 0.6931471805599453 x_9,2_ - 0.2231435513142097 x_7,3_ - 0.6931471805599453 x_10,3_ - 0.2231435513142097 x_1,4_ - 0.6931471805599453 x_2,4_ - 0.6931471805599453 x_4,4_ - 0.5108256237659907 x_2,5_ - 0.2231435513142097 x_4,5_ - 0.5108256237659907 x_7,5_ - 0.5108256237659907 x_9,5_ - 0.35667494393873245 x_6,6_ - 0.5108256237659907 x_10,6_ - 0.6931471805599453 x_2,7_ - 0.2231435513142097 x_4,7_ - 0.35667494393873245 x_7,8_ - 0.6931471805599453 x_8,8_ - 0.5108256237659907 x_1,9_ - 0.2231435513142097 x_2,9_ - 0.6931471805599453 x_7,9_ - 0.2231435513142097 x_1,10_ - 0.35667494393873245 x_3,10_ - 0.5108256237659907 x_5,10_ - 0.35667494393873245 x_6,10_ - 0.6931471805599453 x_7,10_ - 0.5108256237659907 x_9,10_ - 0.6931471805599453 x_10,10_ <= -0.10536051565782628
c5_1: -0.2231435513142097 x_6,1_ - 0.6931471805599453 x_9,1_ - 0.2231435513142097 x_4,2_ - 0.5108256237659907 x_5,2_ - 0.2231435513142097 x_6,2_ - 0.2231435513142097 x_7,2_ - 0.35667494393873245 x_2,3_ - 0.35667494393873245 x_9,3_ - 0.5108256237659907 x_7,4_ - 0.5108256237659907 x_1,5_ - 0.35667494393873245 x_3,5_ - 0.6931471805599453 x_6,5_ - 0.35667494393873245 x_3,6_ - 0.2231435513142097 x_5,6_ - 0.35667494393873245 x_6,6_ - 0.35667494393873245 x_2,7_ - 0.6931471805599453 x_4,7_ - 0.5108256237659907 x_6,7_ - 0.6931471805599453 x_1,8_ - 0.6931471805599453 x_5,8_ - 0.35667494393873245 x_9,8_ - 0.5108256237659907 x_3,9_ - 0.2231435513142097 x_9,9_ - 0.2231435513142097 x_3,10_ - 0.5108256237659907 x_9,10_ <= -0.10536051565782628
c6_1: -0.6931471805599453 x_3,1_ - 0.5108256237659907 x_8,1_ - 0.2231435513142097 x_10,1_ - 0.2231435513142097 x_1,2_ - 0.5108256237659907 x_2,2_ - 0.35667494393873245 x_7,2_ - 0.5108256237659907 x_8,2_ - 0.6931471805599453 x_5,3_ - 0.35667494393873245 x_7,3_ - 0.35667494393873245 x_9,3_ - 0.35667494393873245 x_10,3_ - 0.6931471805599453 x_6,4_ - 0.6931471805599453 x_8,4_ - 0.5108256237659907 x_9,4_ - 0.2231435513142097 x_7,5_ - 0.35667494393873245 x_9,5_ - 0.35667494393873245 x_10,5_ - 0.6931471805599453 x_4,6_ - 0.35667494393873245 x_7,6_ - 0.6931471805599453 x_2,7_ - 0.6931471805599453 x_6,7_ - 0.2231435513142097 x_7,7_ - 0.2231435513142097 x_6,8_ - 0.35667494393873245 x_10,8_ - 0.6931471805599453 x_4,9_ - 0.5108256237659907 x_5,9_ - 0.2231435513142097 x_6,9_ - 0.35667494393873245 x_9,9_ - 0.2231435513142097 x_7,10_ - 0.6931471805599453 x_10,10_ <= -0.10536051565782628
c7_1: -1 x_1,1_ + 1 y_2,2_ <= 0
c8_1: -1 x_1,2_ + 1 y_2,2_ <= 0
c9_1: -1 x_1,3_ + 1 y_2,2_ <= 0
c10_1: -1 x_2,1_ + 1 y_2,2_ <= 0
c11_1: -1 x_2,2_ + 1 y_2,2_ <= 0
c12_1: -1 x_2,3_ + 1 y_2,2_ <= 0
c13_1: -1 x_3,1_ + 1 y_2,2_ <= 0
c14_1: -1 x_3,2_ + 1 y_2,2_ <= 0
c15_1: -1 x_3,3_ + 1 y_2,2_ <= 0
c16_1: -1 x_1,2_ + 1 y_2,3_ <= 0
c17_1: -1 x_1,3_ + 1 y_2,3_ <= 0
c18_1: -1 x_1,4_ + 1 y_2,3_ <= 0
c19_1: -1 x_2,2_ + 1 y_2,3_ <= 0
c20_1: -1 x_2,3_ + 1 y_2,3_ <= 0
c21_1: -1 x_2,4_ + 1 y_2,3_ <= 0
c22_1: -1 x_3,2_ + 1 y_2,3_ <= 0
c23_1: -1 x_3,3_ + 1 y_2,3_ <= 0
c24_1: -1 x_3,4_ + 1 y_2,3_ <= 0
c25_1: -1 x_1,3_ + 1 y_2,4_ <= 0
c26_1: -1 x_1,4_ + 1 y_2,4_ <= 0
c27_1: -1 x_1,5_ + 1 y_2,4_ <= 0
c28_1: -1 x_2,3_ + 1 y_2,4_ <= 0
c29_1: -1 x_2,4_ + 1 y_2,4_ <= 0
c30_1: -1 x_2,5_ + 1 y_2,4_ <= 0
c31_1: -1 x_3,3_ + 1 y_2,4_ <= 0
c32_1: -1 x_3,4_ + 1 y_2,4_ <= 0
c33_1: -1 x_3,5_ + 1 y_2,4_ <= 0
c34_1: -1 x_1,4_ + 1 y_2,5_ <= 0
c35_1: -1 x_1,5_ + 1 y_2,5_ <= 0
c36_1: -1 x_1,6_ + 1 y_2,5_ <= 0
c37_1: -1 x_2,4_ + 1 y_2,5_ <= 0
c38_1: -1 x_2,5_ + 1 y_2,5_ <= 0
c39_1: -1 x_2,6_ + 1 y_2,5_ <= 0
c40_1: -1 x_3,4_ + 1 y_2,5_ <= 0
c41: -1 x_3,5_ + 1 y_2,5_ <= 0
c42: -1 x_3,6_ + 1 y_2,5_ <= 0
c43: -1 x_1,5_ + 1 y_2,6_ <= 0
c44: -1 x_1,6_ + 1 y_2,6_ <= 0
c45: -1 x_1,7_ + 1 y_2,6_ <= 0
c46: -1 x_2,5_ + 1 y_2,6_ <= 0
c47: -1 x_2,6_ + 1 y_2,6_ <= 0
c48: -1 x_2,7_ + 1 y_2,6_ <= 0
c49: -1 x_3,5_ + 1 y_2,6_ <= 0
c50: -1 x_3,6_ + 1 y_2,6_ <= 0
c51: -1 x_3,7_ + 1 y_2,6_ <= 0
c52: -1 x_1,6_ + 1 y_2,7_ <= 0
c53: -1 x_1,7_ + 1 y_2,7_ <= 0
c54: -1 x_1,8_ + 1 y_2,7_ <= 0
c55: -1 x_2,6_ + 1 y_2,7_ <= 0
c56: -1 x_2,7_ + 1 y_2,7_ <= 0
c57: -1 x_2,8_ + 1 y_2,7_ <= 0
c58: -1 x_3,6_ + 1 y_2,7_ <= 0
c59: -1 x_3,7_ + 1 y_2,7_ <= 0
c60: -1 x_3,8_ + 1 y_2,7_ <= 0
c61: -1 x_1,7_ + 1 y_2,8_ <= 0
c62: -1 x_1,8_ + 1 y_2,8_ <= 0
c63: -1 x_1,9_ + 1 y_2,8_ <= 0
c64: -1 x_2,7_ + 1 y_2,8_ <= 0
c65: -1 x_2,8_ + 1 y_2,8_ <= 0
c66: -1 x_2,9_ + 1 y_2,8_ <= 0
c67: -1 x_3,7_ + 1 y_2,8_ <= 0
c68: -1 x_3,8_ + 1 y_2,8_ <= 0
c69: -1 x_3,9_ + 1 y_2,8_ <= 0
c70: -1 x_1,8_ + 1 y_2,9_ <= 0
c71: -1 x_1,9_ + 1 y_2,9_ <= 0
c72: -1 x_1,10_ + 1 y_2,9_ <= 0
c73: -1 x_2,8_ + 1 y_2,9_ <= 0
c74: -1 x_2,9_ + 1 y_2,9_ <= 0
c75: -1 x_2,10_ + 1 y_2,9_ <= 0
c76: -1 x_3,8_ + 1 y_2,9_ <= 0
c77: -1 x_3,9_ + 1 y_2,9_ <= 0
c78: -1 x_3,10_ + 1 y_2,9_ <= 0
c79: -1 x_2,1_ + 1 y_3,2_ <= 0
c80: -1 x_2,2_ + 1 y_3,2_ <= 0
c81: -1 x_2,3_ + 1 y_3,2_ <= 0
c82: -1 x_3,1_ + 1 y_3,2_ <= 0
c83: -1 x_3,2_ + 1 y_3,2_ <= 0
c84: -1 x_3,3_ + 1 y_3,2_ <= 0
c85: -1 x_4,1_ + 1 y_3,2_ <= 0
c86: -1 x_4,2_ + 1 y_3,2_ <= 0
c87: -1 x_4,3_ + 1 y_3,2_ <= 0
c88: -1 x_2,2_ + 1 y_3,3_ <= 0
c89: -1 x_2,3_ + 1 y_3,3_ <= 0
c90: -1 x_2,4_ + 1 y_3,3_ <= 0
c91: -1 x_3,2_ + 1 y_3,3_ <= 0
c92: -1 x_3,3_ + 1 y_3,3_ <= 0
c93: -1 x_3,4_ + 1 y_3,3_ <= 0
c94: -1 x_4,2_ + 1 y_3,3_ <= 0
c95: -1 x_4,3_ + 1 y_3,3_ <= 0
c96: -1 x_4,4_ + 1 y_3,3_ <= 0
c97: -1 x_2,3_ + 1 y_3,4_ <= 0
c98: -1 x_2,4_ + 1 y_3,4_ <= 0
c99: -1 x_2,5_ + 1 y_3,4_ <= 0
c100: -1 x_3,3_ + 1 y_3,4_ <= 0
c101: -1 x_3,4_ + 1 y_3,4_ <= 0
c102: -1 x_3,5_ + 1 y_3,4_ <= 0
c103: -1 x_4,3_ + 1 y_3,4_ <= 0
c104: -1 x_4,4_ + 1 y_3,4_ <= 0
c105: -1 x_4,5_ + 1 y_3,4_ <= 0
c106: -1 x_2,4_ + 1 y_3,5_ <= 0
c107: -1 x_2,5_ + 1 y_3,5_ <= 0
c108: -1 x_2,6_ + 1 y_3,5_ <= 0
c109: -1 x_3,4_ + 1 y_3,5_ <= 0
c110: -1 x_3,5_ + 1 y_3,5_ <= 0
c111: -1 x_3,6_ + 1 y_3,5_ <= 0
c112: -1 x_4,4_ + 1 y_3,5_ <= 0
c113: -1 x_4,5_ + 1 y_3,5_ <= 0
c114: -1 x_4,6_ + 1 y_3,5_ <= 0
c115: -1 x_2,5_ + 1 y_3,6_ <= 0
c116: -1 x_2,6_ + 1 y_3,6_ <= 0
c117: -1 x_2,7_ + 1 y_3,6_ <= 0
c118: -1 x_3,5_ + 1 y_3,6_ <= 0
c119: -1 x_3,6_ + 1 y_3,6_ <= 0
c120: -1 x_3,7_ + 1 y_3,6_ <= 0
c121: -1 x_4,5_ + 1 y_3,6_ <= 0
c122: -1 x_4,6_ + 1 y_3,6_ <= 0
c123: -1 x_4,7_ + 1 y_3,6_ <= 0
c124: -1 x_2,6_ + 1 y_3,7_ <= 0
c125: -1 x_2,7_ + 1 y_3,7_ <= 0
c126: -1 x_2,8_ + 1 y_3,7_ <= 0
c127: -1 x_3,6_ + 1 y_3,7_ <= 0
c128: -1 x_3,7_ + 1 y_3,7_ <= 0
c129: -1 x_3,8_ + 1 y_3,7_ <= 0
c130: -1 x_4,6_ + 1 y_3,7_ <= 0
c131: -1 x_4,7_ + 1 y_3,7_ <= 0
c132: -1 x_4,8_ + 1 y_3,7_ <= 0
c133: -1 x_2,7_ + 1 y_3,8_ <= 0
c134: -1 x_2,8_ + 1 y_3,8_ <= 0
c135: -1 x_2,9_ + 1 y_3,8_ <= 0
c136: -1 x_3,7_ + 1 y_3,8_ <= 0
c137: -1 x_3,8_ + 1 y_3,8_ <= 0
c138: -1 x_3,9_ + 1 y_3,8_ <= 0
c139: -1 x_4,7_ + 1 y_3,8_ <= 0
c140: -1 x_4,8_ + 1 y_3,8_ <= 0
c141: -1 x_4,9_ + 1 y_3,8_ <= 0
c142: -1 x_2,8_ + 1 y_3,9_ <= 0
c143: -1 x_2,9_ + 1 y_3,9_ <= 0
c144: -1 x_2,10_ + 1 y_3,9_ <= 0
c145: -1 x_3,8_ + 1 y_3,9_ <= 0
c146: -1 x_3,9_ + 1 y_3,9_ <= 0
c147: -1 x_3,10_ + 1 y_3,9_ <= 0
c148: -1 x_4,8_ + 1 y_3,9_ <= 0
c149: -1 x_4,9_ + 1 y_3,9_ <= 0
c150: -1 x_4,10_ + 1 y_3,9_ <= 0
c151: -1 x_3,1_ + 1 y_4,2_ <= 0
c152: -1 x_3,2_ + 1 y_4,2_ <= 0
c153: -1 x_3,3_ + 1 y_4,2_ <= 0
c154: -1 x_4,1_ + 1 y_4,2_ <= 0
c155: -1 x_4,2_ + 1 y_4,2_ <= 0
c156: -1 x_4,3_ + 1 y_4,2_ <= 0
c157: -1 x_5,1_ + 1 y_4,2_ <= 0
c158: -1 x_5,2_ + 1 y_4,2_ <= 0
c159: -1 x_5,3_ + 1 y_4,2_ <= 0
c160: -1 x_3,2_ + 1 y_4,3_ <= 0
c161: -1 x_3,3_ + 1 y_4,3_ <= 0
c162: -1 x_3,4_ + 1 y_4,3_ <= 0
c163: -1 x_4,2_ + 1 y_4,3_ <= 0
c164: -1 x_4,3_ + 1 y_4,3_ <= 0
c165: -1 x_4,4_ + 1 y_4,3_ <= 0
c166: -1 x_5,2_ + 1 y_4,3_ <= 0
c167: -1 x_5,3_ + 1 y_4,3_ <= 0
c168: -1 x_5,4_ + 1 y_4,3_ <= 0
c169: -1 x_3,3_ + 1 y_4,4_ <= 0
c170: -1 x_3,4_ + 1 y_4,4_ <= 0
c171: -1 x_3,5_ + 1 y_4,4_ <= 0
c172: -1 x_4,3_ + 1 y_4,4_ <= 0
c173: -1 x_4,4_ + 1 y_4,4_ <= 0
c174: -1 x_4,5_ + 1 y_4,4_ <= 0
c175: -1 x_5,3_ + 1 y_4,4_ <= 0
c176: -1 x_5,4_ + 1 y_4,4_ <= 0
c177: -1 x_5,5_ + 1 y_4,4_ <= 0
c178: -1 x_3,4_ + 1 y_4,5_ <= 0
c179: -1 x_3,5_ + 1 y_4,5_ <= 0
c180: -1 x_3,6_ + 1 y_4,5_ <= 0
c181: -1 x_4,4_ + 1 y_4,5_ <= 0
c182: -1 x_4,5_ + 1 y_4,5_ <= 0
c183: -1 x_4,6_ + 1 y_4,5_ <= 0
c184: -1 x_5,4_ + 1 y_4,5_ <= 0
c185: -1 x_5,5_ + 1 y_4,5_ <= 0
c186: -1 x_5,6_ + 1 y_4,5_ <= 0
c187: -1 x_3,5_ + 1 y_4,6_ <= 0
c188: -1 x_3,6_ + 1 y_4,6_ <= 0
c189: -1 x_3,7_ + 1 y_4,6_ <= 0
c190: -1 x_4,5_ + 1 y_4,6_ <= 0
c191: -1 x_4,6_ + 1 y_4,6_ <= 0
c192: -1 x_4,7_ + 1 y_4,6_ <= 0
c193: -1 x_5,5_ + 1 y_4,6_ <= 0
c194: -1 x_5,6_ + 1 y_4,6_ <= 0
c195: -1 x_5,7_ + 1 y_4,6_ <= 0
c196: -1 x_3,6_ + 1 y_4,7_ <= 0
c197: -1 x_3,7_ + 1 y_4,7_ <= 0
c198: -1 x_3,8_ + 1 y_4,7_ <= 0
c199: -1 x_4,6_ + 1 y_4,7_ <= 0
c200: -1 x_4,7_ + 1 y_4,7_ <= 0
c201: -1 x_4,8_ + 1 y_4,7_ <= 0
c202: -1 x_5,6_ + 1 y_4,7_ <= 0
c203: -1 x_5,7_ + 1 y_4,7_ <= 0
c204: -1 x_5,8_ + 1 y_4,7_ <= 0
c205: -1 x_3,7_ + 1 y_4,8_ <= 0
c206: -1 x_3,8_ + 1 y_4,8_ <= 0
c207: -1 x_3,9_ + 1 y_4,8_ <= 0
c208: -1 x_4,7_ + 1 y_4,8_ <= 0
c209: -1 x_4,8_ + 1 y_4,8_ <= 0
c210: -1 x_4,9_ + 1 y_4,8_ <= 0
c211: -1 x_5,7_ + 1 y_4,8_ <= 0
c212: -1 x_5,8_ + 1 y_4,8_ <= 0
c213: -1 x_5,9_ + 1 y_4,8_ <= 0
c214: -1 x_3,8_ + 1 y_4,9_ <= 0
c215: -1 x_3,9_ + 1 y_4,9_ <= 0
c216: -1 x_3,10_ + 1 y_4,9_ <= 0
c217: -1 x_4,8_ + 1 y_4,9_ <= 0
c218: -1 x_4,9_ + 1 y_4,9_ <= 0
c219: -1 x_4,10_ + 1 y_4,9_ <= 0
c220: -1 x_5,8_ + 1 y_4,9_ <= 0
c221: -1 x_5,9_ + 1 y_4,9_ <= 0
c222: -1 x_5,10_ + 1 y_4,9_ <= 0
c223: -1 x_4,1_ + 1 y_5,2_ <= 0
c224: -1 x_4,2_ + 1 y_5,2_ <= 0
c225: -1 x_4,3_ + 1 y_5,2_ <= 0
c226: -1 x_5,1_ + 1 y_5,2_ <= 0
c227: -1 x_5,2_ + 1 y_5,2_ <= 0
c228: -1 x_5,3_ + 1 y_5,2_ <= 0
c229: -1 x_6,1_ + 1 y_5,2_ <= 0
c230: -1 x_6,2_ + 1 y_5,2_ <= 0
c231: -1 x_6,3_ + 1 y_5,2_ <= 0
c232: -1 x_4,2_ + 1 y_5,3_ <= 0
c233: -1 x_4,3_ + 1 y_5,3_ <= 0
c234: -1 x_4,4_ + 1 y_5,3_ <= 0
c235: -1 x_5,2_ + 1 y_5,3_ <= 0
c236: -1 x_5,3_ + 1 y_5,3_ <= 0
c237: -1 x_5,4_ + 1 y_5,3_ <= 0
c238: -1 x_6,2_ + 1 y_5,3_ <= 0
c239: -1 x_6,3_ + 1 y_5,3_ <= 0
c240: -1 x_6,4_ + 1 y_5,3_ <= 0
c241: -1 x_4,3_ + 1 y_5,4_ <= 0
c242: -1 x_4,4_ + 1 y_5,4_ <= 0
c243: -1 x_4,5_ + 1 y_5,4_ <= 0
c244: -1 x_5,3_ + 1 y_5,4_ <= 0
c245: -1 x_5,4_ + 1 y_5,4_ <= 0
c246: -1 x_5,5_ + 1 y_5,4_ <= 0
c247: -1 x_6,3_ + 1 y_5,4_ <= 0
c248: -1 x_6,4_ + 1 y_5,4_ <= 0
c249: -1 x_6,5_ + 1 y_5,4_ <= 0
c250: -1 x_4,4_ + 1 y_5,5_ <= 0
c251: -1 x_4,5_ + 1 y_5,5_ <= 0
c252: -1 x_4,6_ + 1 y_5,5_ <= 0
c253: -1 x_5,4_ + 1 y_5,5_ <= 0
c254: -1 x_5,5_ + 1 y_5,5_ <= 0
c255: -1 x_5,6_ + 1 y_5,5_ <= 0
c256: -1 x_6,4_ + 1 y_5,5_ <= 0
c257: -1 x_6,5_ + 1 y_5,5_ <= 0
c258: -1 x_6,6_ + 1 y_5,5_ <= 0
c259: -1 x_4,5_ + 1 y_5,6_ <= 0
c260: -1 x_4,6_ + 1 y_5,6_ <= 0
c261: -1 x_4,7_ + 1 y_5,6_ <= 0
c262: -1 x_5,5_ + 1 y_5,6_ <= 0
c263: -1 x_5,6_ + 1 y_5,6_ <= 0
c264: -1 x_5,7_ + 1 y_5,6_ <= 0
c265: -1 x_6,5_ + 1 y_5,6_ <= 0
c266: -1 x_6,6_ + 1 y_5,6_ <= 0
c267: -1 x_6,7_ + 1 y_5,6_ <= 0
c268: -1 x_4,6_ + 1 y_5,7_ <= 0
c269: -1 x_4,7_ + 1 y_5,7_ <= 0
c270: -1 x_4,8_ + 1 y_5,7_ <= 0
c271: -1 x_5,6_ + 1 y_5,7_ <= 0
c272: -1 x_5,7_ + 1 y_5,7_ <= 0
c273: -1 x_5,8_ + 1 y_5,7_ <= 0
c274: -1 x_6,6_ + 1 y_5,7_ <= 0
c275: -1 x_6,7_ + 1 y_5,7_ <= 0
c276: -1 x_6,8_ + 1 y_5,7_ <= 0
c277: -1 x_4,7_ + 1 y_5,8_ <= 0
c278: -1 x_4,8_ + 1 y_5,8_ <= 0
c279: -1 x_4,9_ + 1 y_5,8_ <= 0
c280: -1 x_5,7_ + 1 y_5,8_ <= 0
c281: -1 x_5,8_ + 1 y_5,8_ <= 0
c282: -1 x_5,9_ + 1 y_5,8_ <= 0
c283: -1 x_6,7_ + 1 y_5,8_ <= 0
c284: -1 x_6,8_ + 1 y_5,8_ <= 0
c285: -1 x_6,9_ + 1 y_5,8_ <= 0
c286: -1 x_4,8_ + 1 y_5,9_ <= 0
c287: -1 x_4,9_ + 1 y_5,9_ <= 0
c288: -1 x_4,10_ + 1 y_5,9_ <= 0
c289: -1 x_5,8_ + 1 y_5,9_ <= 0
c290: -1 x_5,9_ + 1 y_5,9_ <= 0
c291: -1 x_5,10_ + 1 y_5,9_ <= 0
c292: -1 x_6,8_ + 1 y_5,9_ <= 0
c293: -1 x_6,9_ + 1 y_5,9_ <= 0
c294: -1 x_6,10_ + 1 y_5,9_ <= 0
c295: -1 x_5,1_ + 1 y_6,2_ <= 0
c296: -1 x_5,2_ + 1 y_6,2_ <= 0
c297: -1 x_5,3_ + 1 y_6,2_ <= 0
c298: -1 x_6,1_ + 1 y_6,2_ <= 0
c299: -1 x_6,2_ + 1 y_6,2_ <= 0
c300: -1 x_6,3_ + 1 y_6,2_ <= 0
c301: -1 x_7,1_ + 1 y_6,2_ <= 0
c302: -1 x_7,2_ + 1 y_6,2_ <= 0
c303: -1 x_7,3_ + 1 y_6,2_ <= 0
c304: -1 x_5,2_ + 1 y_6,3_ <= 0
c305: -1 x_5,3_ + 1 y_6,3_ <= 0
c306: -1 x_5,4_ + 1 y_6,3_ <= 0
c307: -1 x_6,2_ + 1 y_6,3_ <= 0
c308: -1 x_6,3_ + 1 y_6,3_ <= 0
c309: -1 x_6,4_ + 1 y_6,3_ <= 0
c310: -1 x_7,2_ + 1 y_6,3_ <= 0
c311: -1 x_7,3_ + 1 y_6,3_ <= 0
c312: -1 x_7,4_ + 1 y_6,3_ <= 0
c313: -1 x_5,3_ + 1 y_6,4_ <= 0
c314: -1 x_5,4_ + 1 y_6,4_ <= 0
c315: -1 x_5,5_ + 1 y_6,4_ <= 0
c316: -1 x_6,3_ + 1 y_6,4_ <= 0
c317: -1 x_6,4_ + 1 y_6,4_ <= 0
c318: -1 x_6,5_ + 1 y_6,4_ <= 0
c319: -1 x_7,3_ + 1 y_6,4_ <= 0
c320: -1 x_7,4_ + 1 y_6,4_ <= 0
c321: -1 x_7,5_ + 1 y_6,4_ <= 0
c322: -1 x_5,4_ + 1 y_6,5_ <= 0
c323: -1 x_5,5_ + 1 y_6,5_ <= 0
c324: -1 x_5,6_ + 1 y_6,5_ <= 0
c325: -1 x_6,4_ + 1 y_6,5_ <= 0
c326: -1 x_6,5_ + 1 y_6,5_ <= 0
c327: -1 x_6,6_ + 1 y_6,5_ <= 0
c328: -1 x_7,4_ + 1 y_6,5_ <= 0
c329: -1 x_7,5_ + 1 y_6,5_ <= 0
c330: -1 x_7,6_ + 1 y_6,5_ <= 0
c331: -1 x_5,5_ + 1 y_6,6_ <= 0
c332: -1 x_5,6_ + 1 y_6,6_ <= 0
c333: -1 x_5,7_ + 1 y_6,6_ <= 0
c334: -1 x_6,5_ + 1 y_6,6_ <= 0
c335: -1 x_6,6_ + 1 y_6,6_ <= 0
c336: -1 x_6,7_ + 1 y_6,6_ <= 0
c337: -1 x_7,5_ + 1 y_6,6_ <= 0
c338: -1 x_7,6_ + 1 y_6,6_ <= 0
c339: -1 x_7,7_ + 1 y_6,6_ <= 0
c340: -1 x_5,6_ + 1 y_6,7_ <= 0
c341: -1 x_5,7_ + 1 y_6,7_ <= 0
c342: -1 x_5,8_ + 1 y_6,7_ <= 0
c343: -1 x_6,6_ + 1 y_6,7_ <= 0
c344: -1 x_6,7_ + 1 y_6,7_ <= 0
c345: -1 x_6,8_ + 1 y_6,7_ <= 0
c346: -1 x_7,6_ + 1 y_6,7_ <= 0
c347: -1 x_7,7_ + 1 y_6,7_ <= 0
c348: -1 x_7,8_ + 1 y_6,7_ <= 0
c349: -1 x_5,7_ + 1 y_6,8_ <= 0
c350: -1 x_5,8_ + 1 y_6,8_ <= 0
c351: -1 x_5,9_ + 1 y_6,8_ <= 0
c352: -1 x_6,7_ + 1 y_6,8_ <= 0
c353: -1 x_6,8_ + 1 y_6,8_ <= 0
c354: -1 x_6,9_ + 1 y_6,8_ <= 0
c355: -1 x_7,7_ + 1 y_6,8_ <= 0
c356: -1 x_7,8_ + 1 y_6,8_ <= 0
c357: -1 x_7,9_ + 1 y_6,8_ <= 0
c358: -1 x_5,8_ + 1 y_6,9_ <= 0
c359: -1 x_5,9_ + 1 y_6,9_ <= 0
c360: -1 x_5,10_ + 1 y_6,9_ <= 0
c361: -1 x_6,8_ + 1 y_6,9_ <= 0
c362: -1 x_6,9_ + 1 y_6,9_ <= 0
c363: -1 x_6,10_ + 1 y_6,9_ <= 0
c364: -1 x_7,8_ + 1 y_6,9_ <= 0
c365: -1 x_7,9_ + 1 y_6,9_ <= 0
c366: -1 x_7,10_ + 1 y_6,9_ <= 0
c367: -1 x_6,1_ + 1 y_7,2_ <= 0
c368: -1 x_6,2_ + 1 y_7,2_ <= 0
c369: -1 x_6,3_ + 1 y_7,2_ <= 0
c370: -1 x_7,1_ + 1 y_7,2_ <= 0
c371: -1 x_7,2_ + 1 y_7,2_ <= 0
c372: -1 x_7,3_ + 1 y_7,2_ <= 0
c373: -1 x_8,1_ + 1 y_7,2_ <= 0
c374: -1 x_8,2_ + 1 y_7,2_ <= 0
c375: -1 x_8,3_ + 1 y_7,2_ <= 0
c376: -1 x_6,2_ + 1 y_7,3_ <= 0
c377: -1 x_6,3_ + 1 y_7,3_ <= 0
c378: -1 x_6,4_ + 1 y_7,3_ <= 0
c379: -1 x_7,2_ + 1 y_7,3_ <= 0
c380: -1 x_7,3_ + 1 y_7,3_ <= 0
c381: -1 x_7,4_ + 1 y_7,3_ <= 0
c382: -1 x_8,2_ + 1 y_7,3_ <= 0
c383: -1 x_8,3_ + 1 y_7,3_ <= 0
c384: -1 x_8,4_ + 1 y_7,3_ <= 0
c385: -1 x_6,3_ + 1 y_7,4_ <= 0
c386: -1 x_6,4_ + 1 y_7,4_ <= 0
c387: -1 x_6,5_ + 1 y_7,4_ <= 0
c388: -1 x_7,3_ + 1 y_7,4_ <= 0
c389: -1 x_7,4_ + 1 y_7,4_ <= 0
c390: -1 x_7,5_ + 1 y_7,4_ <= 0
c391: -1 x_8,3_ + 1 y_7,4_ <= 0
c392: -1 x_8,4_ + 1 y_7,4_ <= 0
c393: -1 x_8,5_ + 1 y_7,4_ <= 0
c394: -1 x_6,4_ + 1 y_7,5_ <= 0
c395: -1 x_6,5_ + 1 y_7,5_ <= 0
c396: -1 x_6,6_ + 1 y_7,5_ <= 0
c397: -1 x_7,4_ + 1 y_7,5_ <= 0
c398: -1 x_7,5_ + 1 y_7,5_ <= 0
c399: -1 x_7,6_ + 1 y_7,5_ <= 0
c400: -1 x_8,4_ + 1 y_7,5_ <= 0
c401: -1 x_8,5_ + 1 y_7,5_ <= 0
c402: -1 x_8,6_ + 1 y_7,5_ <= 0
c403: -1 x_6,5_ + 1 y_7,6_ <= 0
c404: -1 x_6,6_ + 1 y_7,6_ <= 0
c405: -1 x_6,7_ + 1 y_7,6_ <= 0
c406: -1 x_7,5_ + 1 y_7,6_ <= 0
c407: -1 x_7,6_ + 1 y_7,6_ <= 0
c408: -1 x_7,7_ + 1 y_7,6_ <= 0
c409: -1 x_8,5_ + 1 y_7,6_ <= 0
c410: -1 x_8,6_ + 1 y_7,6_ <= 0
c411: -1 x_8,7_ + 1 y_7,6_ <= 0
c412: -1 x_6,6_ + 1 y_7,7_ <= 0
c413: -1 x_6,7_ + 1 y_7,7_ <= 0
c414: -1 x_6,8_ + 1 y_7,7_ <= 0
c415: -1 x_7,6_ + 1 y_7,7_ <= 0
c416: -1 x_7,7_ + 1 y_7,7_ <= 0
c417: -1 x_7,8_ + 1 y_7,7_ <= 0
c418: -1 x_8,6_ + 1 y_7,7_ <= 0
c419: -1 x_8,7_ + 1 y_7,7_ <= 0
c420: -1 x_8,8_ + 1 y_7,7_ <= 0
c421: -1 x_6,7_ + 1 y_7,8_ <= 0
c422: -1 x_6,8_ + 1 y_7,8_ <= 0
c423: -1 x_6,9_ + 1 y_7,8_ <= 0
c424: -1 x_7,7_ + 1 y_7,8_ <= 0
c425: -1 x_7,8_ + 1 y_7,8_ <= 0
c426: -1 x_7,9_ + 1 y_7,8_ <= 0
c427: -1 x_8,7_ + 1 y_7,8_ <= 0
c428: -1 x_8,8_ + 1 y_7,8_ <= 0
c429: -1 x_8,9_ + 1 y_7,8_ <= 0
c430: -1 x_6,8_ + 1 y_7,9_ <= 0
c431: -1 x_6,9_ + 1 y_7,9_ <= 0
c432: -1 x_6,10_ + 1 y_7,9_ <= 0
c433: -1 x_7,8_ + 1 y_7,9_ <= 0
c434: -1 x_7,9_ + 1 y_7,9_ <= 0
c435: -1 x_7,10_ + 1 y_7,9_ <= 0
c436: -1 x_8,8_ + 1 y_7,9_ <= 0
c437: -1 x_8,9_ + 1 y_7,9_ <= 0
c438: -1 x_8,10_ + 1 y_7,9_ <= 0
c439: -1 x_7,1_ + 1 y_8,2_ <= 0
c440: -1 x_7,2_ + 1 y_8,2_ <= 0
c441: -1 x_7,3_ + 1 y_8,2_ <= 0
c442: -1 x_8,1_ + 1 y_8,2_ <= 0
c443: -1 x_8,2_ + 1 y_8,2_ <= 0
c444: -1 x_8,3_ + 1 y_8,2_ <= 0
c445: -1 x_9,1_ + 1 y_8,2_ <= 0
c446: -1 x_9,2_ + 1 y_8,2_ <= 0
c447: -1 x_9,3_ + 1 y_8,2_ <= 0
c448: -1 x_7,2_ + 1 y_8,3_ <= 0
c449: -1 x_7,3_ + 1 y_8,3_ <= 0
c450: -1 x_7,4_ + 1 y_8,3_ <= 0
c451: -1 x_8,2_ + 1 y_8,3_ <= 0
c452: -1 x_8,3_ + 1 y_8,3_ <= 0
c453: -1 x_8,4_ + 1 y_8,3_ <= 0
c454: -1 x_9,2_ + 1 y_8,3_ <= 0
c455: -1 x_9,3_ + 1 y_8,3_ <= 0
c456: -1 x_9,4_ + 1 y_8,3_ <= 0
c457: -1 x_7,3_ + 1 y_8,4_ <= 0
c458: -1 x_7,4_ + 1 y_8,4_ <= 0
c459: -1 x_7,5_ + 1 y_8,4_ <= 0
c460: -1 x_8,3_ + 1 y_8,4_ <= 0
c461: -1 x_8,4_ + 1 y_8,4_ <= 0
c462: -1 x_8,5_ + 1 y_8,4_ <= 0
c463: -1 x_9,3_ + 1 y_8,4_ <= 0
c464: -1 x_9,4_ + 1 y_8,4_ <= 0
c465: -1 x_9,5_ + 1 y_8,4_ <= 0
c466: -1 x_7,4_ + 1 y_8,5_ <= 0
c467: -1 x_7,5_ + 1 y_8,5_ <= 0
c468: -1 x_7,6_ + 1 y_8,5_ <= 0
c469: -1 x_8,4_ + 1 y_8,5_ <= 0
c470: -1 x_8,5_ + 1 y_8,5_ <= 0
c471: -1 x_8,6_ + 1 y_8,5_ <= 0
c472: -1 x_9,4_ + 1 y_8,5_ <= 0
c473: -1 x_9,5_ + 1 y_8,5_ <= 0
c474: -1 x_9,6_ + 1 y_8,5_ <= 0
c475: -1 x_7,5_ + 1 y_8,6_ <= 0
c476: -1 x_7,6_ + 1 y_8,6_ <= 0
c477: -1 x_7,7_ + 1 y_8,6_ <= 0
c478: -1 x_8,5_ + 1 y_8,6_ <= 0
c479: -1 x_8,6_ + 1 y_8,6_ <= 0
c480: -1 x_8,7_ + 1 y_8,6_ <= 0
c481: -1 x_9,5_ + 1 y_8,6_ <= 0
c482: -1 x_9,6_ + 1 y_8,6_ <= 0
c483: -1 x_9,7_ + 1 y_8,6_ <= 0
c484: -1 x_7,6_ + 1 y_8,7_ <= 0
c485: -1 x_7,7_ + 1 y_8,7_ <= 0
c486: -1 x_7,8_ + 1 y_8,7_ <= 0
c487: -1 x_8,6_ + 1 y_8,7_ <= 0
c488: -1 x_8,7_ + 1 y_8,7_ <= 0
c489: -1 x_8,8_ + 1 y_8,7_ <= 0
c490: -1 x_9,6_ + 1 y_8,7_ <= 0
c491: -1 x_9,7_ + 1 y_8,7_ <= 0
c492: -1 x_9,8_ + 1 y_8,7_ <= 0
c493: -1 x_7,7_ + 1 y_8,8_ <= 0
c494: -1 x_7,8_ + 1 y_8,8_ <= 0
c495: -1 x_7,9_ + 1 y_8,8_ <= 0
c496: -1 x_8,7_ + 1 y_8,8_ <= 0
c497: -1 x_8,8_ + 1 y_8,8_ <= 0
c498: -1 x_8,9_ + 1 y_8,8_ <= 0
c499: -1 x_9,7_ + 1 y_8,8_ <= 0
c500: -1 x_9,8_ + 1 y_8,8_ <= 0
c501: -1 x_9,9_ + 1 y_8,8_ <= 0
c502: -1 x_7,8_ + 1 y_8,9_ <= 0
c503: -1 x_7,9_ + 1 y_8,9_ <= 0
c504: -1 x_7,10_ + 1 y_8,9_ <= 0
c505: -1 x_8,8_ + 1 y_8,9_ <= 0
c506: -1 x_8,9_ + 1 y_8,9_ <= 0
c507: -1 x_8,10_ + 1 y_8,9_ <= 0
c508: -1 x_9,8_ + 1 y_8,9_ <= 0
c509: -1 x_9,9_ + 1 y_8,9_ <= 0
c510: -1 x_9,10_ + 1 y_8,9_ <= 0
c511: -1 x_8,1_ + 1 y_9,2_ <= 0
c512: -1 x_8,2_ + 1 y_9,2_ <= 0
c513: -1 x_8,3_ + 1 y_9,2_ <= 0
c514: -1 x_9,1_ + 1 y_9,2_ <= 0
c515: -1 x_9,2_ + 1 y_9,2_ <= 0
c516: -1 x_9,3_ + 1 y_9,2_ <= 0
c517: -1 x_10,1_ + 1 y_9,2_ <= 0
c518: -1 x_10,2_ + 1 y_9,2_ <= 0
c519: -1 x_10,3_ + 1 y_9,2_ <= 0
c520: -1 x_8,2_ + 1 y_9,3_ <= 0
c521: -1 x_8,3_ + 1 y_9,3_ <= 0
c522: -1 x_8,4_ + 1 y_9,3_ <= 0
c523: -1 x_9,2_ + 1 y_9,3_ <= 0
c524: -1 x_9,3_ + 1 y_9,3_ <= 0
c525: -1 x_9,4_ + 1 y_9,3_ <= 0
c526: -1 x_10,2_ + 1 y_9,3_ <= 0
c527: -1 x_10,3_ + 1 y_9,3_ <= 0
c528: -1 x_10,4_ + 1 y_9,3_ <= 0
c529: -1 x_8,3_ + 1 y_9,4_ <= 0
c530: -1 x_8,4_ + 1 y_9,4_ <= 0
c531: -1 x_8,5_ + 1 y_9,4_ <= 0
c532: -1 x_9,3_ + 1 y_9,4_ <= 0
c533: -1 x_9,4_ + 1 y_9,4_ <= 0
c534: -1 x_9,5_ + 1 y_9,4_ <= 0
c535: -1 x_10,3_ + 1 y_9,4_ <= 0
c536: -1 x_10,4_ + 1 y_9,4_ <= 0
c537: -1 x_10,5_ + 1 y_9,4_ <= 0
c538: -1 x_8,4_ + 1 y_9,5_ <= 0
c539: -1 x_8,5_ + 1 y_9,5_ <= 0
c540: -1 x_8,6_ + 1 y_9,5_ <= 0
c541: -1 x_9,4_ + 1 y_9,5_ <= 0
c542: -1 x_9,5_ + 1 y_9,5_ <= 0
c543: -1 x_9,6_ + 1 y_9,5_ <= 0
c544: -1 x_10,4_ + 1 y_9,5_ <= 0
c545: -1 x_10,5_ + 1 y_9,5_ <= 0
c546: -1 x_10,6_ + 1 y_9,5_ <= 0
c547: -1 x_8,5_ + 1 y_9,6_ <= 0
c548: -1 x_8,6_ + 1 y_9,6_ <= 0
c549: -1 x_8,7_ + 1 y_9,6_ <= 0
c550: -1 x_9,5_ + 1 y_9,6_ <= 0
c551: -1 x_9,6_ + 1 y_9,6_ <= 0
c552: -1 x_9,7_ + 1 y_9,6_ <= 0
c553: -1 x_10,5_ + 1 y_9,6_ <= 0
c554: -1 x_10,6_ + 1 y_9,6_ <= 0
c555: -1 x_10,7_ + 1 y_9,6_ <= 0
c556: -1 x_8,6_ + 1 y_9,7_ <= 0
c557: -1 x_8,7_ + 1 y_9,7_ <= 0
c558: -1 x_8,8_ + 1 y_9,7_ <= 0
c559: -1 x_9,6_ + 1 y_9,7_ <= 0
c560: -1 x_9,7_ + 1 y_9,7_ <= 0
c561: -1 x_9,8_ + 1 y_9,7_ <= 0
c562: -1 x_10,6_ + 1 y_9,7_ <= 0
c563: -1 x_10,7_ + 1 y_9,7_ <= 0
c564: -1 x_10,8_ + 1 y_9,7_ <= 0
c565: -1 x_8,7_ + 1 y_9,8_ <= 0
c566: -1 x_8,8_ + 1 y_9,8_ <= 0
c567: -1 x_8,9_ + 1 y_9,8_ <= 0
c568: -1 x_9,7_ + 1 y_9,8_ <= 0
c569: -1 x_9,8_ + 1 y_9,8_ <= 0
c570: -1 x_9,9_ + 1 y_9,8_ <= 0
c571: -1 x_10,7_ + 1 y_9,8_ <= 0
c572: -1 x_10,8_ + 1 y_9,8_ <= 0
c573: -1 x_10,9_ + 1 y_9,8_ <= 0
c574: -1 x_8,8_ + 1 y_9,9_ <= 0
c575: -1 x_8,9_ + 1 y_9,9_ <= 0
c576: -1 x_8,10_ + 1 y_9,9_ <= 0
c577: -1 x_9,8_ + 1 y_9,9_ <= 0
c578: -1 x_9,9_ + 1 y_9,9_ <= 0
c579: -1 x_9,10_ + 1 y_9,9_ <= 0
c580: -1 x_10,8_ + 1 y_9,9_ <= 0
c581: -1 x_10,9_ + 1 y_9,9_ <= 0
c582: -1 x_10,10_ + 1 y_9,9_ <= 0
c1: 1 y_1,1_ = 0
c2: 1 y_1,10_ = 0
c3: 1 y_2,1_ = 0
c4: 1 y_2,10_ = 0
c5: 1 y_3,1_ = 0
c6: 1 y_3,10_ = 0
c7: 1 y_4,1_ = 0
c8: 1 y_4,10_ = 0
c9: 1 y_5,1_ = 0
c10: 1 y_5,10_ = 0
c11: 1 y_6,1_ = 0
c12: 1 y_6,10_ = 0
c13: 1 y_7,1_ = 0
c14: 1 y_7,10_ = 0
c15: 1 y_8,1_ = 0
c16: 1 y_8,10_ = 0
c17: 1 y_9,1_ = 0
c18: 1 y_9,10_ = 0
c19: 1 y_10,1_ = 0
c20: 1 y_10,10_ = 0
c21: 1 y_1,1_ = 0
c22: 1 y_10,1_ = 0
c23: 1 y_1,2_ = 0
c24: 1 y_10,2_ = 0
c25: 1 y_1,3_ = 0
c26: 1 y_10,3_ = 0
c27: 1 y_1,4_ = 0
c28: 1 y_10,4_ = 0
c29: 1 y_1,5_ = 0
c30: 1 y_10,5_ = 0
c31: 1 y_1,6_ = 0
c32: 1 y_10,6_ = 0
c33: 1 y_1,7_ = 0
c34: 1 y_10,7_ = 0
c35: 1 y_1,8_ = 0
c36: 1 y_10,8_ = 0
c37: 1 y_1,9_ = 0
c38: 1 y_10,9_ = 0
c39: 1 y_1,10_ = 0
c40: 1 y_10,10_ = 0
Bounds
Binary
x_1,1_
x_2,1_
x_3,1_
x_4,1_
x_5,1_
x_6,1_
x_7,1_
x_8,1_
x_9,1_
x_10,1_
x_1,2_
x_2,2_
x_3,2_
x_4,2_
x_5,2_
x_6,2_
x_7,2_
x_8,2_
x_9,2_
x_10,2_
x_1,3_
x_2,3_
x_3,3_
x_4,3_
x_5,3_
x_6,3_
x_7,3_
x_8,3_
x_9,3_
x_10,3_
x_1,4_
x_2,4_
x_3,4_
x_4,4_
x_5,4_
x_6,4_
x_7,4_
x_8,4_
x_9,4_
x_10,4_
x_1,5_
x_2,5_
x_3,5_
x_4,5_
x_5,5_
x_6,5_
x_7,5_
x_8,5_
x_9,5_
x_10,5_
x_1,6_
x_2,6_
x_3,6_
x_4,6_
x_5,6_
x_6,6_
x_7,6_
x_8,6_
x_9,6_
x_10,6_
x_1,7_
x_2,7_
x_3,7_
x_4,7_
x_5,7_
x_6,7_
x_7,7_
x_8,7_
x_9,7_
x_10,7_
x_1,8_
x_2,8_
x_3,8_
x_4,8_
x_5,8_
x_6,8_
x_7,8_
x_8,8_
x_9,8_
x_10,8_
x_1,9_
x_2,9_
x_3,9_
x_4,9_
x_5,9_
x_6,9_
x_7,9_
x_8,9_
x_9,9_
x_10,9_
x_1,10_
x_2,10_
x_3,10_
x_4,10_
x_5,10_
x_6,10_
x_7,10_
x_8,10_
x_9,10_
x_10,10_
y_1,1_
y_2,1_
y_3,1_
y_4,1_
y_5,1_
y_6,1_
y_7,1_
y_8,1_
y_9,1_
y_10,1_
y_1,2_
y_2,2_
y_3,2_
y_4,2_
y_5,2_
y_6,2_
y_7,2_
y_8,2_
y_9,2_
y_10,2_
y_1,3_
y_2,3_
y_3,3_
y_4,3_
y_5,3_
y_6,3_
y_7,3_
y_8,3_
y_9,3_
y_10,3_
y_1,4_
y_2,4_
y_3,4_
y_4,4_
y_5,4_
y_6,4_
y_7,4_
y_8,4_
y_9,4_
y_10,4_
y_1,5_
y_2,5_
y_3,5_
y_4,5_
y_5,5_
y_6,5_
y_7,5_
y_8,5_
y_9,5_
y_10,5_
y_1,6_
y_2,6_
y_3,6_
y_4,6_
y_5,6_
y_6,6_
y_7,6_
y_8,6_
y_9,6_
y_10,6_
y_1,7_
y_2,7_
y_3,7_
y_4,7_
y_5,7_
y_6,7_
y_7,7_
y_8,7_
y_9,7_
y_10,7_
y_1,8_
y_2,8_
y_3,8_
y_4,8_
y_5,8_
y_6,8_
y_7,8_
y_8,8_
y_9,8_
y_10,8_
y_1,9_
y_2,9_
y_3,9_
y_4,9_
y_5,9_
y_6,9_
y_7,9_
y_8,9_
y_9,9_
y_10,9_
y_1,10_
y_2,10_
y_3,10_
y_4,10_
y_5,10_
y_6,10_
y_7,10_
y_8,10_
y_9,10_
y_10,10_
End
